sing20220507.12
TTAA  57111 48698
99004 25824 08002 00066 26025 08506 92750 24031 17518
85492 19629 19518 70141 10012 18510 50588 03905 11006
40761 13115 05010 30975 27727 12508 25102 37358 05021
20253 50357 05018 15434 65945 02516 10667 86932 05021
88999
77999=
TTCC  57113 48698
70866 78345 29510 50063 68157 11035 30375 56958 09066
88932 89527 07023
77297 09068 41303=
TTDD  5711/ 48698
11932 89527 22893 87942 33863 86335 44841 83350 55817 79756
66761 78545 77677 78541 88621 75158 99553 72757 11531 68959
22474 70350 33404 67956 44374 62958 55296 56758
21212 11852 08043 22754 06006 33738 30008 44727 28512 55659
31510 66623 01510 77613 00506 88586 06010 99546 09519 11505
11035 22412 07543 33384 08562 44297 09068 55296 09066=
